
  12    4
  10   10   10   10

   0   0   0   0   0   4 2 4 5 6 
   2  10  10  10  10   1 3 
   7  10  10  10  10   2 11 7 
   9  10  10  10  10   2 11 7 
   5  10  10  10  10   2 11 8 
   2  10  10  10  10   1 7 
   4  10  10  10  10   2 10 9 
   2  10  10  10  10   1 9 
   2  10  10  10  10   1 12
   4  10  10  10  10   1 12
   6  10  10  10  10   1 12
   0   0   0   0   0   0 
